\ Model warehouse_inventory
\ LP format - for model browsing. Use MPS format to capture full model detail.
Minimize
  2290.88 INV1 + 1006.33 HAN1 + 46.66 SHO1 + 1759.7 DIS1 + 2290.88 INV2
   + 1006.33 HAN2 + 46.66 SHO2 + 1759.7 DIS2 + 2290.88 INV3 + 1006.33 HAN3
   + 46.66 SHO3 + 1759.7 DIS3 + 2290.88 INV4 + 1006.33 HAN4 + 46.66 SHO4
   + 1759.7 DIS4 + 2290.88 INV5 + 1006.33 HAN5 + 46.66 SHO5 + 1759.7 DIS5
   + 2290.88 INV6 + 1006.33 HAN6 + 46.66 SHO6 + 1759.7 DIS6
Subject To
 INV_INIT: INV1 = 100
 DEMAND1: 150 INV1 - 100 HAN1 + SHO1 >= 1
 SHORTAGE_LIMIT1: - 20 INV1 + SHO1 <= 0
 DEMAND2: 150 INV2 - 100 HAN2 + SHO2 >= 1
 SHORTAGE_LIMIT2: - 20 INV2 + SHO2 <= 0
 DEMAND3: 150 INV3 - 100 HAN3 + SHO3 >= 1
 SHORTAGE_LIMIT3: - 20 INV3 + SHO3 <= 0
 DEMAND4: 150 INV4 - 100 HAN4 + SHO4 >= 1
 SHORTAGE_LIMIT4: - 20 INV4 + SHO4 <= 0
 DEMAND5: 150 INV5 - 100 HAN5 + SHO5 >= 1
 SHORTAGE_LIMIT5: - 20 INV5 + SHO5 <= 0
 DEMAND6: 150 INV6 - 100 HAN6 + SHO6 >= 1
 SHORTAGE_LIMIT6: - 20 INV6 + SHO6 <= 0
 INV_TRANS2: INV1 + HAN1 - DIS1 - INV2 = 0
 INV_TRANS3: INV2 + HAN2 - DIS2 - INV3 = 0
 INV_TRANS4: INV3 + HAN3 - DIS3 - INV4 = 0
 INV_TRANS5: INV4 + HAN4 - DIS4 - INV5 = 0
 INV_TRANS6: INV5 + HAN5 - DIS5 - INV6 = 0
 DISPOSAL_LIMIT1: - INV1 - HAN1 + DIS1 <= 0
 DISPOSAL_LIMIT2: - INV2 - HAN2 + DIS2 <= 0
 DISPOSAL_LIMIT3: - INV3 - HAN3 + DIS3 <= 0
 DISPOSAL_LIMIT4: - INV4 - HAN4 + DIS4 <= 0
 DISPOSAL_LIMIT5: - INV5 - HAN5 + DIS5 <= 0
 DISPOSAL_LIMIT6: - INV6 - HAN6 + DIS6 <= 0
Bounds
 HAN1 <= 100
 INV2 <= 100
 HAN2 <= 100
 INV3 <= 100
 HAN3 <= 100
 INV4 <= 100
 HAN4 <= 100
 INV5 <= 100
 HAN5 <= 100
 INV6 <= 100
 HAN6 <= 100
Generals
 INV1 HAN1 DIS1 INV2 HAN2 DIS2 INV3 HAN3 DIS3 INV4 HAN4 DIS4 INV5 HAN5 DIS5
 INV6 HAN6 DIS6
End
